281 5
10 10 10 10 10 

0 0 0 0 0 0 1 2 
0 0 0 0 0 0 1 3 
2 5 0 0 0 0 2 9 4 
6 5 0 0 0 0 1 5 
6 8 0 0 0 0 2 12 6 
4 10 0 0 0 0 2 11 7 
1 10 0 0 0 0 1 8 
10 7 0 0 0 0 1 10 
5 9 0 0 0 0 1 11 
2 8 0 0 0 0 1 13 
7 3 0 0 0 0 1 13 
10 10 0 0 0 0 1 13 
0 0 0 0 0 0 4 14 46 78 110 
0 0 0 0 0 0 2 15 18 
5 3 2 3 0 0 1 16 
9 3 7 6 0 0 1 17 
2 8 5 5 0 0 1 19 
1 10 7 5 0 0 1 19 
1 4 10 6 0 0 2 20 237 
9 3 5 9 0 0 2 25 21 
10 10 3 10 0 0 1 22 
1 7 6 8 0 0 1 23 
4 10 6 10 0 0 3 28 27 24 
6 5 7 7 0 0 2 29 26 
4 6 9 8 0 0 2 29 26 
5 7 8 7 0 0 3 33 31 30 
2 4 8 6 0 0 3 33 31 30 
7 4 9 5 0 0 3 33 31 30 
2 7 9 8 0 0 1 30 
8 8 10 10 0 0 1 32 
1 10 7 9 0 0 1 32 
5 5 10 9 0 0 1 34 
8 10 6 10 0 0 1 34 
5 10 7 9 0 0 1 35 
7 7 6 8 0 0 1 36 
1 10 9 8 0 0 2 40 37 
6 9 9 7 0 0 1 38 
3 8 7 8 0 0 1 39 
4 10 10 8 0 0 1 41 
8 10 9 8 0 0 1 41 
9 8 8 10 0 0 1 42 
2 10 6 7 0 0 1 43 
10 9 10 4 0 0 1 44 
4 10 10 7 0 0 1 45 
0 0 0 0 0 0 1 270 
0 0 0 0 0 0 1 47 
10 0 4 0 5 8 1 48 
2 0 7 0 9 7 2 50 49 
9 0 5 0 6 10 2 52 51 
4 0 7 0 10 8 1 51 
8 0 5 0 4 8 1 53 
5 0 6 0 6 10 1 53 
7 0 8 0 7 5 2 56 54 
10 0 7 0 6 10 1 55 
7 0 10 0 9 10 2 59 57 
6 0 7 0 10 5 2 59 57 
8 0 7 0 5 6 2 64 58 
9 0 9 0 5 8 1 60 
2 0 8 0 6 5 1 60 
8 0 9 0 10 7 2 63 61 
5 0 7 0 9 6 1 62 
9 0 6 0 7 10 2 67 65 
1 0 6 0 7 8 2 67 66 
10 0 10 0 10 5 2 67 66 
9 0 8 0 6 5 1 66 
3 0 9 0 10 10 2 70 68 
9 0 6 0 9 9 2 70 69 
1 0 9 0 6 5 1 69 
4 0 9 0 10 7 1 71 
8 0 10 0 9 10 1 71 
6 0 9 0 6 10 1 72 
5 0 8 0 6 8 1 73 
3 0 8 0 7 4 2 74 112 
7 0 6 0 10 9 1 75 
7 0 10 0 7 6 1 76 
9 0 5 0 8 6 1 77 
0 0 0 0 0 0 1 270 
0 0 0 0 0 0 2 79 105 
6 6 0 6 1 0 1 80 
2 10 0 8 4 0 1 81 
10 10 0 6 8 0 1 82 
2 10 0 9 7 0 1 83 
8 8 0 8 8 0 2 97 84 
5 8 0 8 10 0 1 85 
2 6 0 6 6 0 2 86 235 
2 9 0 6 5 0 3 94 89 87 
1 8 0 10 10 0 2 91 88 
9 6 0 10 6 0 3 96 93 90 
9 8 0 9 7 0 2 96 95 
6 4 0 8 6 0 1 92 
9 7 0 7 7 0 1 92 
7 7 0 10 5 0 1 95 
1 9 0 3 6 0 1 95 
5 9 0 7 6 0 1 96 
4 10 0 5 9 0 1 98 
5 8 0 10 9 0 1 98 
3 8 0 8 10 0 1 98 
3 4 0 8 9 0 1 99 
5 5 0 8 10 0 2 108 100 
8 10 0 5 7 0 1 101 
10 6 0 8 7 0 1 102 
3 5 0 6 10 0 1 103 
1 5 0 6 8 0 1 104 
4 10 0 7 10 0 1 106 
5 8 0 9 9 0 1 106 
10 10 0 10 8 0 1 107 
6 6 0 8 10 0 1 109 
10 5 0 6 7 0 1 109 
0 0 0 0 0 0 1 270 
0 0 0 0 0 0 2 111 113 
2 0 0 0 0 1 2 112 165 
6 0 0 0 0 8 3 120 119 114 
9 0 0 0 0 10 2 119 116 
3 0 0 0 0 7 1 115 
6 0 0 0 0 9 1 116 
1 0 0 0 0 5 1 117 
8 0 0 0 0 6 1 118 
6 0 0 0 0 10 1 121 
2 0 0 0 0 9 1 121 
5 0 0 0 0 10 1 121 
0 0 0 0 0 0 5 122 134 156 178 200 
0 0 0 0 0 0 2 123 127 
6 3 0 0 0 0 3 130 124 220 
10 7 0 0 0 0 1 125 
6 10 0 0 0 0 1 126 
10 4 0 0 0 0 2 132 128 
7 8 0 0 0 0 2 132 131 
6 10 0 0 0 0 1 129 
6 9 0 0 0 0 1 131 
6 9 0 0 0 0 1 132 
4 10 0 0 0 0 1 133 
4 5 0 0 0 0 1 133 
0 0 0 0 0 0 4 222 234 246 258 
0 0 0 0 0 0 1 135 
8 0 0 0 5 5 2 139 136 
10 0 0 0 7 7 1 137 
4 0 0 0 3 9 2 138 262 
7 0 0 0 4 7 1 140 
10 0 0 0 6 9 1 140 
3 0 0 0 5 9 1 141 
2 0 0 0 9 9 2 143 142 
4 0 0 0 7 7 1 144 
1 0 0 0 7 5 1 144 
9 0 0 0 10 6 2 149 145 
1 0 0 0 9 5 2 148 146 
8 0 0 0 7 10 1 147 
3 0 0 0 10 8 2 152 150 
9 0 0 0 10 9 2 152 150 
3 0 0 0 10 6 1 150 
3 0 0 0 10 8 1 151 
8 0 0 0 8 2 1 153 
10 0 0 0 5 10 1 153 
8 0 0 0 8 9 1 154 
8 0 0 0 10 10 1 155 
0 0 0 0 0 0 1 270 
0 0 0 0 0 0 2 157 161 
3 0 2 5 0 0 3 176 175 158 
4 0 6 8 0 0 1 159 
9 0 9 5 0 0 2 165 160 
6 0 9 7 0 0 1 162 
8 0 6 7 0 0 2 165 164 
3 0 10 4 0 0 1 163 
5 0 4 7 0 0 1 164 
7 0 7 6 0 0 1 166 
4 0 6 10 0 0 1 166 
3 0 10 9 0 0 2 167 248 
1 0 5 10 0 0 1 168 
7 0 10 5 0 0 2 174 169 
2 0 8 8 0 0 1 170 
3 0 8 10 0 0 1 171 
6 0 10 10 0 0 1 172 
1 0 9 10 0 0 1 173 
7 0 9 10 0 0 1 177 
8 0 8 2 0 0 1 177 
7 0 4 9 0 0 1 177 
4 0 10 8 0 0 1 177 
0 0 0 0 0 0 1 270 
0 0 0 0 0 0 4 179 184 196 249 
2 0 5 0 0 5 1 180 
6 0 3 0 0 6 1 181 
8 0 10 0 0 3 1 182 
2 0 9 0 0 3 2 188 183 
3 0 7 0 0 7 1 185 
2 0 10 0 0 6 1 185 
9 0 6 0 0 10 2 194 186 
2 0 8 0 0 7 1 187 
1 0 10 0 0 10 2 198 189 
10 0 10 0 0 10 2 198 189 
10 0 10 0 0 9 1 190 
5 0 4 0 0 8 1 191 
9 0 5 0 0 7 1 192 
10 0 6 0 0 10 1 193 
5 0 7 0 0 10 1 195 
2 0 8 0 0 6 1 195 
5 0 10 0 0 9 1 197 
10 0 10 0 0 7 1 197 
5 0 3 0 0 10 1 199 
4 0 9 0 0 7 1 199 
0 0 0 0 0 0 1 270 
0 0 0 0 0 0 1 201 
8 0 0 3 0 6 2 207 202 
2 0 0 10 0 4 1 203 
6 0 0 10 0 7 1 204 
1 0 0 6 0 5 2 211 205 
1 0 0 9 0 10 1 206 
1 0 0 4 0 7 2 213 208 
10 0 0 10 0 10 2 213 209 
4 0 0 8 0 9 1 209 
4 0 0 8 0 6 2 217 210 
4 0 0 3 0 10 1 212 
8 0 0 9 0 9 2 213 255 
10 0 0 9 0 9 2 218 214 
2 0 0 8 0 7 2 217 214 
7 0 0 9 0 7 1 215 
6 0 0 7 0 7 1 216 
9 0 0 5 0 8 1 219 
7 0 0 7 0 7 1 219 
9 0 0 6 0 8 1 219 
4 0 0 9 0 8 1 220 
8 0 0 10 0 6 1 221 
0 0 0 0 0 0 1 270 
0 0 0 0 0 0 2 223 228 
3 0 3 0 0 0 2 230 224 
10 0 7 0 0 0 1 225 
1 0 8 0 0 0 2 232 226 
6 0 4 0 0 0 1 227 
3 0 6 0 0 0 1 229 
9 0 10 0 0 0 1 229 
9 0 8 0 0 0 1 231 
10 0 10 0 0 0 1 231 
10 0 9 0 0 0 1 233 
4 0 10 0 0 0 1 233 
0 0 0 0 0 0 1 270 
0 0 0 0 0 0 2 235 244 
10 1 0 0 0 0 2 243 236 
10 10 0 0 0 0 1 237 
3 8 0 0 0 0 2 241 238 
4 10 0 0 0 0 1 239 
2 9 0 0 0 0 1 240 
2 8 0 0 0 0 1 242 
9 6 0 0 0 0 1 242 
8 6 0 0 0 0 1 245 
7 10 0 0 0 0 1 245 
3 7 0 0 0 0 1 245 
0 0 0 0 0 0 1 270 
0 0 0 0 0 0 2 247 248 
2 0 5 0 0 0 2 253 249 
6 0 10 0 0 0 2 253 250 
10 0 5 0 0 0 1 250 
4 0 7 0 0 0 1 251 
9 0 10 0 0 0 1 252 
4 0 5 0 0 0 1 254 
9 0 8 0 0 0 1 254 
10 0 8 0 0 0 2 256 255 
3 0 10 0 0 0 1 257 
5 0 7 0 0 0 1 257 
0 0 0 0 0 0 1 270 
0 0 0 0 0 0 1 259 
10 0 0 0 0 3 3 268 267 260 
6 0 0 0 0 4 1 261 
4 0 0 0 0 6 2 266 262 
8 0 0 0 0 9 1 263 
8 0 0 0 0 8 1 264 
1 0 0 0 0 10 1 265 
7 0 0 0 0 9 1 269 
8 0 0 0 0 10 1 269 
9 0 0 0 0 8 1 269 
2 0 0 0 0 8 1 269 
0 0 0 0 0 0 1 270 
0 0 0 0 0 0 2 271 273 
6 0 0 0 0 2 1 272 
6 0 0 0 0 7 1 274 
2 0 0 0 0 10 1 274 
7 0 0 0 0 5 2 280 275 
9 0 0 0 0 6 2 277 276 
3 0 0 0 0 9 1 278 
5 0 0 0 0 10 1 278 
5 0 0 0 0 8 1 279 
8 0 0 0 0 8 1 281 
10 0 0 0 0 10 1 281 
0 0 0 0 0 0 0 
